data/lp_files/pEFS/103_5.lp
\ Model foo
\ LP format - for model browsing. Use MPS format to capture full model detail.
Minimize
  z
Subject To
 allocateEach[1]: x[1,1] + x[2,1] + x[3,1] + x[4,1] + x[5,1] + x[6,1] = 1
 allocateEach[2]: x[1,2] + x[2,2] + x[3,2] + x[4,2] + x[5,2] + x[6,2] = 1
 allocateEach[3]: x[1,3] + x[2,3] + x[3,3] + x[4,3] + x[5,3] + x[6,3] = 1
 allocateAllCash: cashProportion[1] + cashProportion[2] + cashProportion[3]
   + cashProportion[4] + cashProportion[5] + cashProportion[6] = 1
 findWorstP[1,2]: z + 0.1551189245087901 cashProportion[1]
   - 0.1551189245087901 cashProportion[2] + 0.5067735263702172 x[1,1]
   + 0.1618407445708376 x[1,2] + 0.1762668045501551 x[1,3]
   - 0.5067735263702172 x[2,1] - 0.1618407445708376 x[2,2]
   - 0.1762668045501551 x[2,3] >= 0
 findWorstP[1,3]: z + 0.1551189245087901 cashProportion[1]
   - 0.1551189245087901 cashProportion[3] + 0.5067735263702172 x[1,1]
   + 0.1618407445708376 x[1,2] + 0.1762668045501551 x[1,3]
   - 0.5067735263702172 x[3,1] - 0.1618407445708376 x[3,2]
   - 0.1762668045501551 x[3,3] >= 0
 findWorstP[1,4]: z + 0.1551189245087901 cashProportion[1]
   - 0.1551189245087901 cashProportion[4] + 0.5067735263702172 x[1,1]
   + 0.1618407445708376 x[1,2] + 0.1762668045501551 x[1,3]
   - 0.5067735263702172 x[4,1] - 0.1618407445708376 x[4,2]
   - 0.1762668045501551 x[4,3] >= 0
 findWorstP[1,5]: z + 0.1551189245087901 cashProportion[1]
   - 0.1551189245087901 cashProportion[5] + 0.5067735263702172 x[1,1]
   + 0.1618407445708376 x[1,2] + 0.1762668045501551 x[1,3]
   - 0.5067735263702172 x[5,1] - 0.1618407445708376 x[5,2]
   - 0.1762668045501551 x[5,3] >= 0
 findWorstP[1,6]: z + 0.1551189245087901 cashProportion[1]
   - 0.1551189245087901 cashProportion[6] + 0.5067735263702172 x[1,1]
   + 0.1618407445708376 x[1,2] + 0.1762668045501551 x[1,3]
   - 0.5067735263702172 x[6,1] - 0.1618407445708376 x[6,2]
   - 0.1762668045501551 x[6,3] >= 0
 findWorstP[2,1]: z - 0.0964630225080386 cashProportion[1]
   + 0.0964630225080386 cashProportion[2] - 0.3003536977491962 x[1,1]
   - 0.3189710610932476 x[1,2] - 0.2842122186495177 x[1,3]
   + 0.3003536977491962 x[2,1] + 0.3189710610932476 x[2,2]
   + 0.2842122186495177 x[2,3] >= 0
 findWorstP[2,3]: z + 0.0964630225080386 cashProportion[2]
   - 0.0964630225080386 cashProportion[3] + 0.3003536977491962 x[2,1]
   + 0.3189710610932476 x[2,2] + 0.2842122186495177 x[2,3]
   - 0.3003536977491962 x[3,1] - 0.3189710610932476 x[3,2]
   - 0.2842122186495177 x[3,3] >= 0
 findWorstP[2,4]: z + 0.0964630225080386 cashProportion[2]
   - 0.0964630225080386 cashProportion[4] + 0.3003536977491962 x[2,1]
   + 0.3189710610932476 x[2,2] + 0.2842122186495177 x[2,3]
   - 0.3003536977491962 x[4,1] - 0.3189710610932476 x[4,2]
   - 0.2842122186495177 x[4,3] >= 0
 findWorstP[2,5]: z + 0.0964630225080386 cashProportion[2]
   - 0.0964630225080386 cashProportion[5] + 0.3003536977491962 x[2,1]
   + 0.3189710610932476 x[2,2] + 0.2842122186495177 x[2,3]
   - 0.3003536977491962 x[5,1] - 0.3189710610932476 x[5,2]
   - 0.2842122186495177 x[5,3] >= 0
 findWorstP[2,6]: z + 0.0964630225080386 cashProportion[2]
   - 0.0964630225080386 cashProportion[6] + 0.3003536977491962 x[2,1]
   + 0.3189710610932476 x[2,2] + 0.2842122186495177 x[2,3]
   - 0.3003536977491962 x[6,1] - 0.3189710610932476 x[6,2]
   - 0.2842122186495177 x[6,3] >= 0
 findWorstP[3,1]: z - 0.1677101967799642 cashProportion[1]
   + 0.1677101967799642 cashProportion[3] - 0.2603980322003578 x[1,1]
   - 0.279628801431127 x[1,2] - 0.292262969588551 x[1,3]
   + 0.2603980322003578 x[3,1] + 0.279628801431127 x[3,2]
   + 0.292262969588551 x[3,3] >= 0
 findWorstP[3,2]: z - 0.1677101967799642 cashProportion[2]
   + 0.1677101967799642 cashProportion[3] - 0.2603980322003578 x[2,1]
   - 0.279628801431127 x[2,2] - 0.292262969588551 x[2,3]
   + 0.2603980322003578 x[3,1] + 0.279628801431127 x[3,2]
   + 0.292262969588551 x[3,3] >= 0
 findWorstP[3,4]: z + 0.1677101967799642 cashProportion[3]
   - 0.1677101967799642 cashProportion[4] + 0.2603980322003578 x[3,1]
   + 0.279628801431127 x[3,2] + 0.292262969588551 x[3,3]
   - 0.2603980322003578 x[4,1] - 0.279628801431127 x[4,2]
   - 0.292262969588551 x[4,3] >= 0
 findWorstP[3,5]: z + 0.1677101967799642 cashProportion[3]
   - 0.1677101967799642 cashProportion[5] + 0.2603980322003578 x[3,1]
   + 0.279628801431127 x[3,2] + 0.292262969588551 x[3,3]
   - 0.2603980322003578 x[5,1] - 0.279628801431127 x[5,2]
   - 0.292262969588551 x[5,3] >= 0
 findWorstP[3,6]: z + 0.1677101967799642 cashProportion[3]
   - 0.1677101967799642 cashProportion[6] + 0.2603980322003578 x[3,1]
   + 0.279628801431127 x[3,2] + 0.292262969588551 x[3,3]
   - 0.2603980322003578 x[6,1] - 0.279628801431127 x[6,2]
   - 0.292262969588551 x[6,3] >= 0
 findWorstP[4,1]: z - 0.2062706270627063 cashProportion[1]
   + 0.2062706270627063 cashProportion[4] - 0.4874174917491749 x[1,1]
   - 0.109529702970297 x[1,2] - 0.1967821782178218 x[1,3]
   + 0.4874174917491749 x[4,1] + 0.109529702970297 x[4,2]
   + 0.1967821782178218 x[4,3] >= 0
 findWorstP[4,2]: z - 0.2062706270627063 cashProportion[2]
   + 0.2062706270627063 cashProportion[4] - 0.4874174917491749 x[2,1]
   - 0.109529702970297 x[2,2] - 0.1967821782178218 x[2,3]
   + 0.4874174917491749 x[4,1] + 0.109529702970297 x[4,2]
   + 0.1967821782178218 x[4,3] >= 0
 findWorstP[4,3]: z - 0.2062706270627063 cashProportion[3]
   + 0.2062706270627063 cashProportion[4] - 0.4874174917491749 x[3,1]
   - 0.109529702970297 x[3,2] - 0.1967821782178218 x[3,3]
   + 0.4874174917491749 x[4,1] + 0.109529702970297 x[4,2]
   + 0.1967821782178218 x[4,3] >= 0
 findWorstP[4,5]: z + 0.2062706270627063 cashProportion[4]
   - 0.2062706270627063 cashProportion[5] + 0.4874174917491749 x[4,1]
   + 0.109529702970297 x[4,2] + 0.1967821782178218 x[4,3]
   - 0.4874174917491749 x[5,1] - 0.109529702970297 x[5,2]
   - 0.1967821782178218 x[5,3] >= 0
 findWorstP[4,6]: z + 0.2062706270627063 cashProportion[4]
   - 0.2062706270627063 cashProportion[6] + 0.4874174917491749 x[4,1]
   + 0.109529702970297 x[4,2] + 0.1967821782178218 x[4,3]
   - 0.4874174917491749 x[6,1] - 0.109529702970297 x[6,2]
   - 0.1967821782178218 x[6,3] >= 0
 findWorstP[5,1]: z - 0.1379564057757749 cashProportion[1]
   + 0.1379564057757749 cashProportion[5] - 0.3166099512554033 x[1,1]
   - 0.0871884484502897 x[1,2] - 0.4582451945185322 x[1,3]
   + 0.3166099512554033 x[5,1] + 0.0871884484502897 x[5,2]
   + 0.4582451945185322 x[5,3] >= 0
 findWorstP[5,2]: z - 0.1379564057757749 cashProportion[2]
   + 0.1379564057757749 cashProportion[5] - 0.3166099512554033 x[2,1]
   - 0.0871884484502897 x[2,2] - 0.4582451945185322 x[2,3]
   + 0.3166099512554033 x[5,1] + 0.0871884484502897 x[5,2]
   + 0.4582451945185322 x[5,3] >= 0
 findWorstP[5,3]: z - 0.1379564057757749 cashProportion[3]
   + 0.1379564057757749 cashProportion[5] - 0.3166099512554033 x[3,1]
   - 0.0871884484502897 x[3,2] - 0.4582451945185322 x[3,3]
   + 0.3166099512554033 x[5,1] + 0.0871884484502897 x[5,2]
   + 0.4582451945185322 x[5,3] >= 0
 findWorstP[5,4]: z - 0.1379564057757749 cashProportion[4]
   + 0.1379564057757749 cashProportion[5] - 0.3166099512554033 x[4,1]
   - 0.0871884484502897 x[4,2] - 0.4582451945185322 x[4,3]
   + 0.3166099512554033 x[5,1] + 0.0871884484502897 x[5,2]
   + 0.4582451945185322 x[5,3] >= 0
 findWorstP[5,6]: z + 0.1379564057757749 cashProportion[5]
   - 0.1379564057757749 cashProportion[6] + 0.3166099512554033 x[5,1]
   + 0.0871884484502897 x[5,2] + 0.4582451945185322 x[5,3]
   - 0.3166099512554033 x[6,1] - 0.0871884484502897 x[6,2]
   - 0.4582451945185322 x[6,3] >= 0
 findWorstP[6,1]: z - 0.15821950319076 cashProportion[1]
   + 0.15821950319076 cashProportion[6] - 0.2384367913084753 x[1,1]
   - 0.217551816887295 x[1,2] - 0.3857918886134697 x[1,3]
   + 0.2384367913084753 x[6,1] + 0.217551816887295 x[6,2]
   + 0.3857918886134697 x[6,3] >= 0
 findWorstP[6,2]: z - 0.15821950319076 cashProportion[2]
   + 0.15821950319076 cashProportion[6] - 0.2384367913084753 x[2,1]
   - 0.217551816887295 x[2,2] - 0.3857918886134697 x[2,3]
   + 0.2384367913084753 x[6,1] + 0.217551816887295 x[6,2]
   + 0.3857918886134697 x[6,3] >= 0
 findWorstP[6,3]: z - 0.15821950319076 cashProportion[3]
   + 0.15821950319076 cashProportion[6] - 0.2384367913084753 x[3,1]
   - 0.217551816887295 x[3,2] - 0.3857918886134697 x[3,3]
   + 0.2384367913084753 x[6,1] + 0.217551816887295 x[6,2]
   + 0.3857918886134697 x[6,3] >= 0
 findWorstP[6,4]: z - 0.15821950319076 cashProportion[4]
   + 0.15821950319076 cashProportion[6] - 0.2384367913084753 x[4,1]
   - 0.217551816887295 x[4,2] - 0.3857918886134697 x[4,3]
   + 0.2384367913084753 x[6,1] + 0.217551816887295 x[6,2]
   + 0.3857918886134697 x[6,3] >= 0
 findWorstP[6,5]: z - 0.15821950319076 cashProportion[5]
   + 0.15821950319076 cashProportion[6] - 0.2384367913084753 x[5,1]
   - 0.217551816887295 x[5,2] - 0.3857918886134697 x[5,3]
   + 0.2384367913084753 x[6,1] + 0.217551816887295 x[6,2]
   + 0.3857918886134697 x[6,3] >= 0
Bounds
 z <= 1
 -infinity <= cashProportion[1] <= 1
 -infinity <= cashProportion[2] <= 1
 -infinity <= cashProportion[3] <= 1
 -infinity <= cashProportion[4] <= 1
 -infinity <= cashProportion[5] <= 1
 -infinity <= cashProportion[6] <= 1
Binaries
 x[1,1] x[1,2] x[1,3] x[2,1] x[2,2] x[2,3] x[3,1] x[3,2] x[3,3] x[4,1]
 x[4,2] x[4,3] x[5,1] x[5,2] x[5,3] x[6,1] x[6,2] x[6,3]
End
