data/mps_files/q3/103_5.mps
NAME foo
ROWS
 N  OBJ
 E  allocateEach[1]
 E  allocateEach[2]
 E  allocateEach[3]
 E  allocateAllCash
 G  findWorstP[1,2]
 G  findWorstP[1,3]
 G  findWorstP[1,4]
 G  findWorstP[1,5]
 G  findWorstP[1,6]
 G  findWorstP[2,1]
 G  findWorstP[2,3]
 G  findWorstP[2,4]
 G  findWorstP[2,5]
 G  findWorstP[2,6]
 G  findWorstP[3,1]
 G  findWorstP[3,2]
 G  findWorstP[3,4]
 G  findWorstP[3,5]
 G  findWorstP[3,6]
 G  findWorstP[4,1]
 G  findWorstP[4,2]
 G  findWorstP[4,3]
 G  findWorstP[4,5]
 G  findWorstP[4,6]
 G  findWorstP[5,1]
 G  findWorstP[5,2]
 G  findWorstP[5,3]
 G  findWorstP[5,4]
 G  findWorstP[5,6]
 G  findWorstP[6,1]
 G  findWorstP[6,2]
 G  findWorstP[6,3]
 G  findWorstP[6,4]
 G  findWorstP[6,5]
COLUMNS
    z         OBJ       1
    z         findWorstP[1,2]  1
    z         findWorstP[1,3]  1
    z         findWorstP[1,4]  1
    z         findWorstP[1,5]  1
    z         findWorstP[1,6]  1
    z         findWorstP[2,1]  1
    z         findWorstP[2,3]  1
    z         findWorstP[2,4]  1
    z         findWorstP[2,5]  1
    z         findWorstP[2,6]  1
    z         findWorstP[3,1]  1
    z         findWorstP[3,2]  1
    z         findWorstP[3,4]  1
    z         findWorstP[3,5]  1
    z         findWorstP[3,6]  1
    z         findWorstP[4,1]  1
    z         findWorstP[4,2]  1
    z         findWorstP[4,3]  1
    z         findWorstP[4,5]  1
    z         findWorstP[4,6]  1
    z         findWorstP[5,1]  1
    z         findWorstP[5,2]  1
    z         findWorstP[5,3]  1
    z         findWorstP[5,4]  1
    z         findWorstP[5,6]  1
    z         findWorstP[6,1]  1
    z         findWorstP[6,2]  1
    z         findWorstP[6,3]  1
    z         findWorstP[6,4]  1
    z         findWorstP[6,5]  1
    cashProportion[1]  allocateAllCash  1
    cashProportion[1]  findWorstP[1,2]  1.5511892450879008e-01
    cashProportion[1]  findWorstP[1,3]  1.5511892450879008e-01
    cashProportion[1]  findWorstP[1,4]  1.5511892450879008e-01
    cashProportion[1]  findWorstP[1,5]  1.5511892450879008e-01
    cashProportion[1]  findWorstP[1,6]  1.5511892450879008e-01
    cashProportion[1]  findWorstP[2,1]  -9.6463022508038579e-02
    cashProportion[1]  findWorstP[3,1]  -1.6771019677996424e-01
    cashProportion[1]  findWorstP[4,1]  -2.0627062706270630e-01
    cashProportion[1]  findWorstP[5,1]  -1.3795640577577487e-01
    cashProportion[1]  findWorstP[6,1]  -1.5821950319075997e-01
    cashProportion[2]  allocateAllCash  1
    cashProportion[2]  findWorstP[1,2]  -1.5511892450879008e-01
    cashProportion[2]  findWorstP[2,1]  9.6463022508038579e-02
    cashProportion[2]  findWorstP[2,3]  9.6463022508038579e-02
    cashProportion[2]  findWorstP[2,4]  9.6463022508038579e-02
    cashProportion[2]  findWorstP[2,5]  9.6463022508038579e-02
    cashProportion[2]  findWorstP[2,6]  9.6463022508038579e-02
    cashProportion[2]  findWorstP[3,2]  -1.6771019677996424e-01
    cashProportion[2]  findWorstP[4,2]  -2.0627062706270630e-01
    cashProportion[2]  findWorstP[5,2]  -1.3795640577577487e-01
    cashProportion[2]  findWorstP[6,2]  -1.5821950319075997e-01
    cashProportion[3]  allocateAllCash  1
    cashProportion[3]  findWorstP[1,3]  -1.5511892450879008e-01
    cashProportion[3]  findWorstP[2,3]  -9.6463022508038579e-02
    cashProportion[3]  findWorstP[3,1]  1.6771019677996424e-01
    cashProportion[3]  findWorstP[3,2]  1.6771019677996424e-01
    cashProportion[3]  findWorstP[3,4]  1.6771019677996424e-01
    cashProportion[3]  findWorstP[3,5]  1.6771019677996424e-01
    cashProportion[3]  findWorstP[3,6]  1.6771019677996424e-01
    cashProportion[3]  findWorstP[4,3]  -2.0627062706270630e-01
    cashProportion[3]  findWorstP[5,3]  -1.3795640577577487e-01
    cashProportion[3]  findWorstP[6,3]  -1.5821950319075997e-01
    cashProportion[4]  allocateAllCash  1
    cashProportion[4]  findWorstP[1,4]  -1.5511892450879008e-01
    cashProportion[4]  findWorstP[2,4]  -9.6463022508038579e-02
    cashProportion[4]  findWorstP[3,4]  -1.6771019677996424e-01
    cashProportion[4]  findWorstP[4,1]  2.0627062706270630e-01
    cashProportion[4]  findWorstP[4,2]  2.0627062706270630e-01
    cashProportion[4]  findWorstP[4,3]  2.0627062706270630e-01
    cashProportion[4]  findWorstP[4,5]  2.0627062706270630e-01
    cashProportion[4]  findWorstP[4,6]  2.0627062706270630e-01
    cashProportion[4]  findWorstP[5,4]  -1.3795640577577487e-01
    cashProportion[4]  findWorstP[6,4]  -1.5821950319075997e-01
    cashProportion[5]  allocateAllCash  1
    cashProportion[5]  findWorstP[1,5]  -1.5511892450879008e-01
    cashProportion[5]  findWorstP[2,5]  -9.6463022508038579e-02
    cashProportion[5]  findWorstP[3,5]  -1.6771019677996424e-01
    cashProportion[5]  findWorstP[4,5]  -2.0627062706270630e-01
    cashProportion[5]  findWorstP[5,1]  1.3795640577577487e-01
    cashProportion[5]  findWorstP[5,2]  1.3795640577577487e-01
    cashProportion[5]  findWorstP[5,3]  1.3795640577577487e-01
    cashProportion[5]  findWorstP[5,4]  1.3795640577577487e-01
    cashProportion[5]  findWorstP[5,6]  1.3795640577577487e-01
    cashProportion[5]  findWorstP[6,5]  -1.5821950319075997e-01
    cashProportion[6]  allocateAllCash  1
    cashProportion[6]  findWorstP[1,6]  -1.5511892450879008e-01
    cashProportion[6]  findWorstP[2,6]  -9.6463022508038579e-02
    cashProportion[6]  findWorstP[3,6]  -1.6771019677996424e-01
    cashProportion[6]  findWorstP[4,6]  -2.0627062706270630e-01
    cashProportion[6]  findWorstP[5,6]  -1.3795640577577487e-01
    cashProportion[6]  findWorstP[6,1]  1.5821950319075997e-01
    cashProportion[6]  findWorstP[6,2]  1.5821950319075997e-01
    cashProportion[6]  findWorstP[6,3]  1.5821950319075997e-01
    cashProportion[6]  findWorstP[6,4]  1.5821950319075997e-01
    cashProportion[6]  findWorstP[6,5]  1.5821950319075997e-01
    MARKER    'MARKER'                 'INTORG'
    x[1,1]    allocateEach[1]  1
    x[1,1]    findWorstP[1,2]  5.0677352637021722e-01
    x[1,1]    findWorstP[1,3]  5.0677352637021722e-01
    x[1,1]    findWorstP[1,4]  5.0677352637021722e-01
    x[1,1]    findWorstP[1,5]  5.0677352637021722e-01
    x[1,1]    findWorstP[1,6]  5.0677352637021722e-01
    x[1,1]    findWorstP[2,1]  -3.0035369774919618e-01
    x[1,1]    findWorstP[3,1]  -2.6039803220035779e-01
    x[1,1]    findWorstP[4,1]  -4.8741749174917492e-01
    x[1,1]    findWorstP[5,1]  -3.1660995125540331e-01
    x[1,1]    findWorstP[6,1]  -2.3843679130847528e-01
    x[1,2]    allocateEach[2]  1
    x[1,2]    findWorstP[1,2]  1.6184074457083764e-01
    x[1,2]    findWorstP[1,3]  1.6184074457083764e-01
    x[1,2]    findWorstP[1,4]  1.6184074457083764e-01
    x[1,2]    findWorstP[1,5]  1.6184074457083764e-01
    x[1,2]    findWorstP[1,6]  1.6184074457083764e-01
    x[1,2]    findWorstP[2,1]  -3.1897106109324758e-01
    x[1,2]    findWorstP[3,1]  -0.279628801431127
    x[1,2]    findWorstP[4,1]  -1.0952970297029704e-01
    x[1,2]    findWorstP[5,1]  -8.7188448450289710e-02
    x[1,2]    findWorstP[6,1]  -2.1755181688729497e-01
    x[1,3]    allocateEach[3]  1
    x[1,3]    findWorstP[1,2]  1.7626680455015512e-01
    x[1,3]    findWorstP[1,3]  1.7626680455015512e-01
    x[1,3]    findWorstP[1,4]  1.7626680455015512e-01
    x[1,3]    findWorstP[1,5]  1.7626680455015512e-01
    x[1,3]    findWorstP[1,6]  1.7626680455015512e-01
    x[1,3]    findWorstP[2,1]  -2.8421221864951768e-01
    x[1,3]    findWorstP[3,1]  -0.292262969588551
    x[1,3]    findWorstP[4,1]  -1.9678217821782182e-01
    x[1,3]    findWorstP[5,1]  -4.5824519451853218e-01
    x[1,3]    findWorstP[6,1]  -3.8579188861346975e-01
    x[2,1]    allocateEach[1]  1
    x[2,1]    findWorstP[1,2]  -5.0677352637021722e-01
    x[2,1]    findWorstP[2,1]  3.0035369774919618e-01
    x[2,1]    findWorstP[2,3]  3.0035369774919618e-01
    x[2,1]    findWorstP[2,4]  3.0035369774919618e-01
    x[2,1]    findWorstP[2,5]  3.0035369774919618e-01
    x[2,1]    findWorstP[2,6]  3.0035369774919618e-01
    x[2,1]    findWorstP[3,2]  -2.6039803220035779e-01
    x[2,1]    findWorstP[4,2]  -4.8741749174917492e-01
    x[2,1]    findWorstP[5,2]  -3.1660995125540331e-01
    x[2,1]    findWorstP[6,2]  -2.3843679130847528e-01
    x[2,2]    allocateEach[2]  1
    x[2,2]    findWorstP[1,2]  -1.6184074457083764e-01
    x[2,2]    findWorstP[2,1]  3.1897106109324758e-01
    x[2,2]    findWorstP[2,3]  3.1897106109324758e-01
    x[2,2]    findWorstP[2,4]  3.1897106109324758e-01
    x[2,2]    findWorstP[2,5]  3.1897106109324758e-01
    x[2,2]    findWorstP[2,6]  3.1897106109324758e-01
    x[2,2]    findWorstP[3,2]  -0.279628801431127
    x[2,2]    findWorstP[4,2]  -1.0952970297029704e-01
    x[2,2]    findWorstP[5,2]  -8.7188448450289710e-02
    x[2,2]    findWorstP[6,2]  -2.1755181688729497e-01
    x[2,3]    allocateEach[3]  1
    x[2,3]    findWorstP[1,2]  -1.7626680455015512e-01
    x[2,3]    findWorstP[2,1]  2.8421221864951768e-01
    x[2,3]    findWorstP[2,3]  2.8421221864951768e-01
    x[2,3]    findWorstP[2,4]  2.8421221864951768e-01
    x[2,3]    findWorstP[2,5]  2.8421221864951768e-01
    x[2,3]    findWorstP[2,6]  2.8421221864951768e-01
    x[2,3]    findWorstP[3,2]  -0.292262969588551
    x[2,3]    findWorstP[4,2]  -1.9678217821782182e-01
    x[2,3]    findWorstP[5,2]  -4.5824519451853218e-01
    x[2,3]    findWorstP[6,2]  -3.8579188861346975e-01
    x[3,1]    allocateEach[1]  1
    x[3,1]    findWorstP[1,3]  -5.0677352637021722e-01
    x[3,1]    findWorstP[2,3]  -3.0035369774919618e-01
    x[3,1]    findWorstP[3,1]  2.6039803220035779e-01
    x[3,1]    findWorstP[3,2]  2.6039803220035779e-01
    x[3,1]    findWorstP[3,4]  2.6039803220035779e-01
    x[3,1]    findWorstP[3,5]  2.6039803220035779e-01
    x[3,1]    findWorstP[3,6]  2.6039803220035779e-01
    x[3,1]    findWorstP[4,3]  -4.8741749174917492e-01
    x[3,1]    findWorstP[5,3]  -3.1660995125540331e-01
    x[3,1]    findWorstP[6,3]  -2.3843679130847528e-01
    x[3,2]    allocateEach[2]  1
    x[3,2]    findWorstP[1,3]  -1.6184074457083764e-01
    x[3,2]    findWorstP[2,3]  -3.1897106109324758e-01
    x[3,2]    findWorstP[3,1]  0.279628801431127
    x[3,2]    findWorstP[3,2]  0.279628801431127
    x[3,2]    findWorstP[3,4]  0.279628801431127
    x[3,2]    findWorstP[3,5]  0.279628801431127
    x[3,2]    findWorstP[3,6]  0.279628801431127
    x[3,2]    findWorstP[4,3]  -1.0952970297029704e-01
    x[3,2]    findWorstP[5,3]  -8.7188448450289710e-02
    x[3,2]    findWorstP[6,3]  -2.1755181688729497e-01
    x[3,3]    allocateEach[3]  1
    x[3,3]    findWorstP[1,3]  -1.7626680455015512e-01
    x[3,3]    findWorstP[2,3]  -2.8421221864951768e-01
    x[3,3]    findWorstP[3,1]  0.292262969588551
    x[3,3]    findWorstP[3,2]  0.292262969588551
    x[3,3]    findWorstP[3,4]  0.292262969588551
    x[3,3]    findWorstP[3,5]  0.292262969588551
    x[3,3]    findWorstP[3,6]  0.292262969588551
    x[3,3]    findWorstP[4,3]  -1.9678217821782182e-01
    x[3,3]    findWorstP[5,3]  -4.5824519451853218e-01
    x[3,3]    findWorstP[6,3]  -3.8579188861346975e-01
    x[4,1]    allocateEach[1]  1
    x[4,1]    findWorstP[1,4]  -5.0677352637021722e-01
    x[4,1]    findWorstP[2,4]  -3.0035369774919618e-01
    x[4,1]    findWorstP[3,4]  -2.6039803220035779e-01
    x[4,1]    findWorstP[4,1]  4.8741749174917492e-01
    x[4,1]    findWorstP[4,2]  4.8741749174917492e-01
    x[4,1]    findWorstP[4,3]  4.8741749174917492e-01
    x[4,1]    findWorstP[4,5]  4.8741749174917492e-01
    x[4,1]    findWorstP[4,6]  4.8741749174917492e-01
    x[4,1]    findWorstP[5,4]  -3.1660995125540331e-01
    x[4,1]    findWorstP[6,4]  -2.3843679130847528e-01
    x[4,2]    allocateEach[2]  1
    x[4,2]    findWorstP[1,4]  -1.6184074457083764e-01
    x[4,2]    findWorstP[2,4]  -3.1897106109324758e-01
    x[4,2]    findWorstP[3,4]  -0.279628801431127
    x[4,2]    findWorstP[4,1]  1.0952970297029704e-01
    x[4,2]    findWorstP[4,2]  1.0952970297029704e-01
    x[4,2]    findWorstP[4,3]  1.0952970297029704e-01
    x[4,2]    findWorstP[4,5]  1.0952970297029704e-01
    x[4,2]    findWorstP[4,6]  1.0952970297029704e-01
    x[4,2]    findWorstP[5,4]  -8.7188448450289710e-02
    x[4,2]    findWorstP[6,4]  -2.1755181688729497e-01
    x[4,3]    allocateEach[3]  1
    x[4,3]    findWorstP[1,4]  -1.7626680455015512e-01
    x[4,3]    findWorstP[2,4]  -2.8421221864951768e-01
    x[4,3]    findWorstP[3,4]  -0.292262969588551
    x[4,3]    findWorstP[4,1]  1.9678217821782182e-01
    x[4,3]    findWorstP[4,2]  1.9678217821782182e-01
    x[4,3]    findWorstP[4,3]  1.9678217821782182e-01
    x[4,3]    findWorstP[4,5]  1.9678217821782182e-01
    x[4,3]    findWorstP[4,6]  1.9678217821782182e-01
    x[4,3]    findWorstP[5,4]  -4.5824519451853218e-01
    x[4,3]    findWorstP[6,4]  -3.8579188861346975e-01
    x[5,1]    allocateEach[1]  1
    x[5,1]    findWorstP[1,5]  -5.0677352637021722e-01
    x[5,1]    findWorstP[2,5]  -3.0035369774919618e-01
    x[5,1]    findWorstP[3,5]  -2.6039803220035779e-01
    x[5,1]    findWorstP[4,5]  -4.8741749174917492e-01
    x[5,1]    findWorstP[5,1]  3.1660995125540331e-01
    x[5,1]    findWorstP[5,2]  3.1660995125540331e-01
    x[5,1]    findWorstP[5,3]  3.1660995125540331e-01
    x[5,1]    findWorstP[5,4]  3.1660995125540331e-01
    x[5,1]    findWorstP[5,6]  3.1660995125540331e-01
    x[5,1]    findWorstP[6,5]  -2.3843679130847528e-01
    x[5,2]    allocateEach[2]  1
    x[5,2]    findWorstP[1,5]  -1.6184074457083764e-01
    x[5,2]    findWorstP[2,5]  -3.1897106109324758e-01
    x[5,2]    findWorstP[3,5]  -0.279628801431127
    x[5,2]    findWorstP[4,5]  -1.0952970297029704e-01
    x[5,2]    findWorstP[5,1]  8.7188448450289710e-02
    x[5,2]    findWorstP[5,2]  8.7188448450289710e-02
    x[5,2]    findWorstP[5,3]  8.7188448450289710e-02
    x[5,2]    findWorstP[5,4]  8.7188448450289710e-02
    x[5,2]    findWorstP[5,6]  8.7188448450289710e-02
    x[5,2]    findWorstP[6,5]  -2.1755181688729497e-01
    x[5,3]    allocateEach[3]  1
    x[5,3]    findWorstP[1,5]  -1.7626680455015512e-01
    x[5,3]    findWorstP[2,5]  -2.8421221864951768e-01
    x[5,3]    findWorstP[3,5]  -0.292262969588551
    x[5,3]    findWorstP[4,5]  -1.9678217821782182e-01
    x[5,3]    findWorstP[5,1]  4.5824519451853218e-01
    x[5,3]    findWorstP[5,2]  4.5824519451853218e-01
    x[5,3]    findWorstP[5,3]  4.5824519451853218e-01
    x[5,3]    findWorstP[5,4]  4.5824519451853218e-01
    x[5,3]    findWorstP[5,6]  4.5824519451853218e-01
    x[5,3]    findWorstP[6,5]  -3.8579188861346975e-01
    x[6,1]    allocateEach[1]  1
    x[6,1]    findWorstP[1,6]  -5.0677352637021722e-01
    x[6,1]    findWorstP[2,6]  -3.0035369774919618e-01
    x[6,1]    findWorstP[3,6]  -2.6039803220035779e-01
    x[6,1]    findWorstP[4,6]  -4.8741749174917492e-01
    x[6,1]    findWorstP[5,6]  -3.1660995125540331e-01
    x[6,1]    findWorstP[6,1]  2.3843679130847528e-01
    x[6,1]    findWorstP[6,2]  2.3843679130847528e-01
    x[6,1]    findWorstP[6,3]  2.3843679130847528e-01
    x[6,1]    findWorstP[6,4]  2.3843679130847528e-01
    x[6,1]    findWorstP[6,5]  2.3843679130847528e-01
    x[6,2]    allocateEach[2]  1
    x[6,2]    findWorstP[1,6]  -1.6184074457083764e-01
    x[6,2]    findWorstP[2,6]  -3.1897106109324758e-01
    x[6,2]    findWorstP[3,6]  -0.279628801431127
    x[6,2]    findWorstP[4,6]  -1.0952970297029704e-01
    x[6,2]    findWorstP[5,6]  -8.7188448450289710e-02
    x[6,2]    findWorstP[6,1]  2.1755181688729497e-01
    x[6,2]    findWorstP[6,2]  2.1755181688729497e-01
    x[6,2]    findWorstP[6,3]  2.1755181688729497e-01
    x[6,2]    findWorstP[6,4]  2.1755181688729497e-01
    x[6,2]    findWorstP[6,5]  2.1755181688729497e-01
    x[6,3]    allocateEach[3]  1
    x[6,3]    findWorstP[1,6]  -1.7626680455015512e-01
    x[6,3]    findWorstP[2,6]  -2.8421221864951768e-01
    x[6,3]    findWorstP[3,6]  -0.292262969588551
    x[6,3]    findWorstP[4,6]  -1.9678217821782182e-01
    x[6,3]    findWorstP[5,6]  -4.5824519451853218e-01
    x[6,3]    findWorstP[6,1]  3.8579188861346975e-01
    x[6,3]    findWorstP[6,2]  3.8579188861346975e-01
    x[6,3]    findWorstP[6,3]  3.8579188861346975e-01
    x[6,3]    findWorstP[6,4]  3.8579188861346975e-01
    x[6,3]    findWorstP[6,5]  3.8579188861346975e-01
    MARKER    'MARKER'                 'INTEND'
RHS
    RHS1      allocateEach[1]  1
    RHS1      allocateEach[2]  1
    RHS1      allocateEach[3]  1
    RHS1      allocateAllCash  1
BOUNDS
 UP BND1      z         1
 MI BND1      cashProportion[1]
 UP BND1      cashProportion[1]  1
 MI BND1      cashProportion[2]
 UP BND1      cashProportion[2]  1
 MI BND1      cashProportion[3]
 UP BND1      cashProportion[3]  1
 MI BND1      cashProportion[4]
 UP BND1      cashProportion[4]  1
 MI BND1      cashProportion[5]
 UP BND1      cashProportion[5]  1
 MI BND1      cashProportion[6]
 UP BND1      cashProportion[6]  1
 BV BND1      x[1,1]  
 BV BND1      x[1,2]  
 BV BND1      x[1,3]  
 BV BND1      x[2,1]  
 BV BND1      x[2,2]  
 BV BND1      x[2,3]  
 BV BND1      x[3,1]  
 BV BND1      x[3,2]  
 BV BND1      x[3,3]  
 BV BND1      x[4,1]  
 BV BND1      x[4,2]  
 BV BND1      x[4,3]  
 BV BND1      x[5,1]  
 BV BND1      x[5,2]  
 BV BND1      x[5,3]  
 BV BND1      x[6,1]  
 BV BND1      x[6,2]  
 BV BND1      x[6,3]  
ENDATA
